Traveling Salesman Problem/TSP_generados/Aleatorio1621103916_18.tsp
NAME: Aleatorio1621103916_18.tsp
COMMENT: Randomly generated scenario
TYPE: TSP
DIMENSION: 18
EDGE_WEIGHT_TYPE: ATT
NODE_COORD_SECTION
1 12.11 27.34
2 42.64 15.1
3 25.72 29.34
4 32.4 47.34
5 42.6 24.82
6 25.56 35.53
7 40.54 5.5
8 2.54 6.28
9 33.45 14.52
10 48.43 17.2
11 49.56 31.87
12 26.9 46.85
13 11.05 8.65
14 2.25 36.31
15 0.69 16.64
16 15.62 43.67
17 11.79 35.32
18 4.98 11.91
