Traveling Salesman Problem/TSP_generados/Aleatorio1621103916_18.opt.tour
NAME: Aleatorio1621103916_18.opt.tour
COMMENT: Optimal solution for Aleatorio1621103916_18 (198.9040142920529)
TYPE: TOUR
DIMENSION: 18
TOUR_SECTION
1 15 18 8 13 9 7 2 10 11 5 3 6 4 12 16 17 14
-1
EOF
